TCS_Benchmarks/redos_fix/snort3_output_distinct_4125_4124_0_0.txt
([^\n\r]*)([^;\n\?\.\r"']{18,})
([^\n\r]*)(\.)([^;\n\?\.\r"']{18,})